1457.0 19036.0 597.0 
1523.0 19024.0 37.0 
1515.0 19094.0 103.0 
1553.0 18884.0 98.0 
1469.0 19030.0 594.0 
1524.0 18924.0 0.0 
1477.0 19253.0 529.0 
1526.0 18902.0 0.0 
1469.0 19030.0 594.0 
1460.0 18984.0 597.0 
1507.0 19174.0 103.0 
1483.0 19028.0 498.0 
1515.0 19094.0 103.0 
1489.0 18985.0 458.0 
1526.0 18902.0 0.0 
1501.0 19026.0 410.0 
1526.0 18902.0 0.0 
1502.0 18921.0 233.0 
1526.0 18902.0 0.0 
1509.0 19085.0 109.0 
1524.0 18924.0 0.0 
1503.0 18748.0 116.0 
1500.0 19102.0 301.0 
1477.0 19253.0 529.0 
1464.0 19115.0 550.0 
1461.0 19160.0 545.0 
1515.0 19094.0 103.0 
1477.0 19253.0 529.0 
